NAME : X-n856-k95
COMMENT : "Generated by Uchoa, Pecin, Pessoa, Poggi, Subramanian, and Vidal (2013)"
TYPE : CVRP
DIMENSION : 856
EDGE_WEIGHT_TYPE : EUC_2D
CAPACITY : 9
NODE_COORD_SECTION
1 500 500
2 440 732
3 221 348
4 117 545
5 493 645
6 135 12
7 775 997
8 745 444
9 950 311
10 530 150
11 900 508
12 48 519
13 269 217
14 722 349
15 480 733
16 977 422
17 999 220
18 636 332
19 851 162
20 559 567
21 389 69
22 529 835
23 303 427
24 400 638
25 894 904
26 482 109
27 579 800
28 184 82
29 669 753
30 906 424
31 374 692
32 174 613
33 75 37
34 38 563
35 838 157
36 710 709
37 176 67
38 449 326
39 71 389
40 710 115
41 237 547
42 530 27
43 631 223
44 171 342
45 226 65
46 6 998
47 24 635
48 668 165
49 318 608
50 429 82
51 212 237
52 853 126
53 387 47
54 677 144
55 111 790
56 957 32
57 511 647
58 457 561
59 86 687
60 290 456
61 473 563
62 807 725
63 461 468
64 739 235
65 257 340
66 588 545
67 6 311
68 268 976
69 552 414
70 994 946
71 452 534
72 422 545
73 248 611
74 43 366
75 977 96
76 822 580
77 940 650
78 86 263
79 715 99
80 668 981
81 424 638
82 297 607
83 251 282
84 237 413
85 202 573
86 181 385
87 126 528
88 386 811
89 978 846
90 70 99
91 333 357
92 49 870
93 157 734
94 627 268
95 818 433
96 738 555
97 350 909
98 337 926
99 978 59
100 42 595
101 870 933
102 19 120
103 165 679
104 131 984
105 232 755
106 319 417
107 187 376
108 251 482
109 657 219
110 209 397
111 800 377
112 228 116
113 566 559
114 490 156
115 216 547
116 964 677
117 85 897
118 292 807
119 600 893
120 938 222
121 543 747
122 572 976
123 569 59
124 712 574
125 971 515
126 616 306
127 695 837
128 421 821
129 604 995
130 537 957
131 1000 653
132 282 817
133 380 874
134 778 101
135 462 74
136 87 682
137 441 228
138 608 430
139 511 313
140 710 300
141 630 24
142 626 650
143 531 719
144 598 824
145 995 622
146 258 981
147 358 281
148 279 169
149 286 268
150 259 659
151 782 132
152 862 518
153 457 603
154 210 438
155 44 44
156 527 818
157 164 156
158 23 86
159 342 930
160 39 282
161 269 848
162 436 886
163 323 340
164 237 891
165 333 488
166 517 137
167 591 972
168 541 888
169 122 280
170 159 655
171 200 158
172 446 283
173 107 315
174 588 270
175 158 374
176 26 353
177 959 76
178 852 328
179 927 736
180 437 138
181 53 938
182 333 192
183 922 499
184 407 948
185 970 664
186 237 738
187 8 561
188 747 852
189 989 908
190 100 860
191 10 960
192 842 190
193 595 716
194 286 965
195 199 373
196 159 67
197 979 25
198 488 479
199 804 620
200 742 853
201 528 160
202 223 342
203 503 159
204 711 681
205 339 340
206 342 509
207 931 593
208 766 953
209 710 172
210 521 451
211 172 159
212 685 836
213 639 155
214 763 656
215 269 241
216 825 761
217 330 177
218 901 124
219 713 860
220 619 926
221 692 19
222 96 876
223 949 178
224 79 795
225 833 852
226 336 444
227 877 0
228 296 597
229 566 735
230 940 377
231 349 269
232 939 827
233 908 120
234 50 741
235 670 569
236 753 744
237 577 351
238 141 616
239 97 625
240 64 875
241 496 160
242 515 598
243 344 803
244 274 510
245 291 170
246 800 300
247 74 609
248 365 207
249 791 396
250 453 848
251 405 191
252 395 290
253 525 743
254 260 385
255 408 837
256 1 346
257 231 504
258 837 572
259 606 473
260 900 729
261 346 868
262 123 80
263 477 169
264 383 59
265 510 410
266 890 101
267 952 635
268 825 722
269 68 598
270 234 841
271 911 720
272 172 367
273 569 289
274 84 19
275 694 916
276 454 412
277 261 233
278 693 375
279 588 854
280 276 538
281 599 569
282 142 158
283 338 805
284 324 194
285 739 325
286 845 639
287 638 182
288 858 93
289 40 923
290 37 599
291 638 39
292 218 714
293 568 674
294 288 840
295 439 570
296 325 801
297 587 278
298 992 674
299 597 608
300 174 865
301 65 330
302 872 434
303 620 129
304 339 681
305 178 811
306 478 966
307 469 749
308 475 791
309 799 594
310 692 130
311 59 223
312 811 2
313 5 946
314 219 305
315 759 951
316 656 889
317 582 18
318 97 885
319 888 467
320 899 286
321 512 358
322 188 776
323 220 951
324 503 801
325 483 402
326 685 904
327 483 722
328 13 301
329 387 976
330 607 709
331 857 739
332 51 422
333 818 797
334 302 646
335 474 101
336 817 66
337 573 973
338 948 686
339 922 552
340 586 899
341 153 503
342 47 817
343 740 970
344 216 852
345 261 776
346 935 540
347 920 879
348 642 623
349 305 71
350 268 373
351 409 940
352 374 176
353 894 60
354 539 352
355 605 457
356 4 240
357 340 303
358 563 524
359 861 875
360 700 810
361 160 753
362 985 455
363 981 276
364 708 646
365 575 249
366 777 725
367 724 888
368 853 773
369 4 27
370 743 430
371 301 574
372 38 983
373 575 209
374 10 683
375 878 342
376 745 333
377 616 311
378 537 110
379 70 839
380 531 647
381 157 736
382 609 356
383 450 852
384 534 11
385 436 279
386 340 578
387 41 809
388 971 282
389 389 628
390 171 951
391 821 278
392 633 578
393 158 858
394 374 163
395 219 471
396 392 784
397 586 937
398 546 923
399 619 737
400 700 50
401 722 223
402 112 450
403 857 66
404 81 295
405 314 964
406 829 981
407 723 590
408 645 700
409 318 800
410 277 268
411 459 81
412 573 211
413 391 259
414 368 81
415 262 451
416 629 44
417 390 264
418 842 703
419 780 254
420 653 177
421 882 625
422 763 432
423 615 183
424 62 855
425 629 543
426 27 83
427 822 574
428 355 86
429 102 110
430 859 489
431 410 900
432 519 683
433 111 12
434 957 366
435 848 474
436 265 184
437 985 701
438 862 488
439 215 888
440 945 515
441 76 204
442 553 988
443 22 32
444 817 463
445 938 553
446 441 911
447 944 473
448 120 85
449 139 101
450 551 214
451 422 750
452 373 976
453 196 122
454 312 75
455 870 353
456 25 46
457 470 958
458 184 140
459 890 462
460 841 551
461 843 479
462 82 88
463 979 491
464 898 582
465 439 811
466 8 173
467 199 182
468 239 151
469 960 334
470 67 99
471 49 100
472 253 120
473 124 84
474 64 183
475 453 987
476 490 869
477 153 111
478 421 756
479 862 440
480 170 166
481 887 544
482 854 544
483 58 109
484 135 102
485 408 787
486 44 101
487 859 469
488 865 487
489 845 522
490 350 875
491 24 154
492 945 452
493 732 438
494 322 797
495 569 889
496 853 466
497 286 3
498 19 558
499 44 168
500 482 967
501 271 127
502 425 909
503 405 777
504 921 499
505 513 901
506 811 488
507 541 920
508 41 240
509 876 405
510 449 871
511 786 558
512 467 684
513 75 150
514 827 446
515 625 441
516 122 117
517 321 913
518 935 443
519 378 902
520 95 48
521 939 576
522 991 561
523 887 479
524 108 102
525 822 451
526 137 252
527 788 543
528 556 988
529 769 375
530 445 848
531 446 965
532 925 421
533 674 544
534 117 30
535 388 987
536 119 18
537 439 962
538 134 297
539 614 521
540 887 325
541 467 903
542 772 461
543 423 944
544 379 846
545 916 509
546 983 447
547 667 885
548 96 150
549 465 911
550 96 17
551 425 963
552 93 201
553 132 93
554 671 926
555 901 468
556 93 287
557 795 581
558 741 514
559 119 223
560 503 964
561 849 388
562 80 58
563 116 81
564 123 266
565 683 363
566 77 114
567 872 520
568 187 62
569 83 158
570 918 677
571 19 198
572 909 427
573 937 395
574 11 176
575 80 88
576 72 143
577 510 919
578 25 87
579 421 825
580 855 443
581 823 522
582 468 802
583 2 112
584 96 91
585 647 389
586 876 475
587 422 970
588 705 454
589 151 897
590 853 420
591 883 484
592 27 44
593 852 479
594 154 38
595 285 921
596 50 196
597 956 449
598 259 863
599 702 637
600 422 975
601 413 885
602 432 847
603 112 263
604 908 625
605 783 344
606 422 744
607 372 987
608 860 387
609 168 96
610 358 850
611 476 813
612 62 117
613 539 970
614 278 215
615 854 616
616 379 769
617 418 899
618 128 124
619 46 207
620 466 816
621 890 559
622 688 555
623 826 582
624 127 126
625 879 499
626 401 805
627 384 826
628 320 775
629 204 336
630 866 515
631 801 544
632 117 139
633 852 498
634 397 949
635 405 865
636 724 356
637 414 830
638 131 31
639 318 200
640 946 468
641 1 157
642 542 729
643 245 352
644 539 905
645 827 317
646 376 836
647 878 519
648 212 724
649 876 516
650 96 124
651 939 557
652 504 915
653 380 841
654 149 149
655 804 494
656 330 999
657 104 67
658 283 883
659 877 601
660 866 497
661 138 48
662 814 455
663 970 535
664 450 898
665 220 93
666 208 26
667 317 96
668 921 488
669 903 248
670 95 80
671 849 498
672 816 494
673 52 141
674 180 59
675 69 98
676 199 69
677 884 460
678 879 525
679 57 102
680 978 705
681 929 486
682 152 106
683 691 634
684 456 977
685 391 789
686 442 872
687 754 759
688 854 615
689 820 450
690 326 986
691 71 69
692 315 718
693 377 938
694 44 74
695 290 921
696 899 478
697 24 197
698 438 957
699 142 147
700 437 837
701 742 549
702 288 844
703 792 425
704 413 913
705 447 938
706 849 496
707 262 65
708 840 466
709 533 687
710 810 536
711 213 160
712 860 414
713 884 459
714 4 153
715 447 930
716 140 44
717 521 878
718 575 779
719 442 900
720 877 579
721 893 487
722 73 13
723 394 886
724 511 949
725 474 772
726 812 425
727 684 471
728 458 971
729 132 137
730 797 351
731 401 904
732 132 115
733 386 268
734 856 456
735 953 616
736 382 794
737 548 895
738 861 525
739 372 780
740 967 425
741 534 912
742 52 157
743 396 888
744 82 60
745 856 523
746 12 90
747 8 208
748 303 67
749 497 721
750 454 984
751 120 69
752 831 458
753 786 524
754 40 111
755 347 868
756 377 932
757 296 934
758 896 547
759 884 450
760 812 534
761 926 500
762 380 921
763 423 888
764 797 512
765 848 444
766 716 514
767 412 903
768 871 532
769 402 885
770 870 564
771 826 512
772 529 867
773 451 999
774 852 522
775 406 859
776 51 110
777 919 577
778 824 407
779 411 883
780 794 483
781 46 105
782 274 236
783 430 972
784 854 533
785 336 959
786 813 702
787 210 304
788 460 867
789 315 915
790 454 857
791 905 380
792 831 580
793 399 106
794 97 106
795 805 499
796 904 561
797 420 930
798 876 448
799 102 164
800 74 112
801 139 43
802 370 995
803 849 441
804 405 938
805 57 100
806 78 81
807 170 77
808 959 379
809 347 913
810 845 478
811 316 803
812 115 74
813 538 906
814 939 530
815 405 891
816 235 819
817 982 463
818 817 482
819 463 971
820 847 370
821 200 145
822 769 970
823 712 624
824 910 566
825 867 531
826 352 966
827 490 865
828 451 831
829 97 85
830 408 920
831 869 485
832 341 453
833 10 127
834 1 25
835 918 775
836 277 884
837 847 483
838 884 435
839 745 448
840 118 13
841 222 755
842 695 341
843 25 18
844 380 843
845 949 466
846 436 877
847 912 446
848 405 857
849 824 490
850 486 866
851 568 430
852 935 513
853 821 687
854 367 814
855 33 97
856 411 722
PICKUP_AND_DELIVERY_SECTION
1 0 0 1000000000 0 0 0
2 0 0 1000000000 0 0 1
3 0 0 1000000000 0 0 1
4 0 0 1000000000 0 0 1
5 0 0 1000000000 0 0 1
6 0 0 1000000000 0 0 1
7 0 0 1000000000 0 0 1
8 0 0 1000000000 0 0 1
9 0 0 1000000000 0 0 1
10 0 0 1000000000 0 0 1
11 0 0 1000000000 0 1 0
12 0 0 1000000000 0 0 1
13 0 0 1000000000 0 0 1
14 0 0 1000000000 0 0 1
15 0 0 1000000000 0 0 1
16 0 0 1000000000 0 0 1
17 0 0 1000000000 0 0 1
18 0 0 1000000000 0 0 1
19 0 0 1000000000 0 0 1
20 0 0 1000000000 0 0 1
21 0 0 1000000000 0 1 0
22 0 0 1000000000 0 0 1
23 0 0 1000000000 0 0 1
24 0 0 1000000000 0 0 1
25 0 0 1000000000 0 0 1
26 0 0 1000000000 0 0 1
27 0 0 1000000000 0 0 1
28 0 0 1000000000 0 0 1
29 0 0 1000000000 0 0 1
30 0 0 1000000000 0 0 1
31 0 0 1000000000 0 1 0
32 0 0 1000000000 0 0 1
33 0 0 1000000000 0 0 1
34 0 0 1000000000 0 0 1
35 0 0 1000000000 0 0 1
36 0 0 1000000000 0 0 1
37 0 0 1000000000 0 0 1
38 0 0 1000000000 0 0 1
39 0 0 1000000000 0 0 1
40 0 0 1000000000 0 0 1
41 0 0 1000000000 0 1 0
42 0 0 1000000000 0 0 1
43 0 0 1000000000 0 0 1
44 0 0 1000000000 0 0 1
45 0 0 1000000000 0 0 1
46 0 0 1000000000 0 0 1
47 0 0 1000000000 0 0 1
48 0 0 1000000000 0 0 1
49 0 0 1000000000 0 0 1
50 0 0 1000000000 0 0 1
51 0 0 1000000000 0 1 0
52 0 0 1000000000 0 0 1
53 0 0 1000000000 0 0 1
54 0 0 1000000000 0 0 1
55 0 0 1000000000 0 0 1
56 0 0 1000000000 0 0 1
57 0 0 1000000000 0 0 1
58 0 0 1000000000 0 0 1
59 0 0 1000000000 0 0 1
60 0 0 1000000000 0 0 1
61 0 0 1000000000 0 1 0
62 0 0 1000000000 0 0 1
63 0 0 1000000000 0 0 1
64 0 0 1000000000 0 0 1
65 0 0 1000000000 0 0 1
66 0 0 1000000000 0 0 1
67 0 0 1000000000 0 0 1
68 0 0 1000000000 0 0 1
69 0 0 1000000000 0 0 1
70 0 0 1000000000 0 0 1
71 0 0 1000000000 0 1 0
72 0 0 1000000000 0 0 1
73 0 0 1000000000 0 0 1
74 0 0 1000000000 0 0 1
75 0 0 1000000000 0 0 1
76 0 0 1000000000 0 0 1
77 0 0 1000000000 0 0 1
78 0 0 1000000000 0 0 1
79 0 0 1000000000 0 0 1
80 0 0 1000000000 0 0 1
81 0 0 1000000000 0 1 0
82 0 0 1000000000 0 0 1
83 0 0 1000000000 0 0 1
84 0 0 1000000000 0 0 1
85 0 0 1000000000 0 0 1
86 0 0 1000000000 0 0 1
87 0 0 1000000000 0 0 1
88 0 0 1000000000 0 0 1
89 0 0 1000000000 0 0 1
90 0 0 1000000000 0 0 1
91 0 0 1000000000 0 1 0
92 0 0 1000000000 0 0 1
93 0 0 1000000000 0 0 1
94 0 0 1000000000 0 0 1
95 0 0 1000000000 0 0 1
96 0 0 1000000000 0 0 1
97 0 0 1000000000 0 0 1
98 0 0 1000000000 0 0 1
99 0 0 1000000000 0 0 1
100 0 0 1000000000 0 0 1
101 0 0 1000000000 0 1 0
102 0 0 1000000000 0 0 1
103 0 0 1000000000 0 0 1
104 0 0 1000000000 0 0 1
105 0 0 1000000000 0 0 1
106 0 0 1000000000 0 0 1
107 0 0 1000000000 0 0 1
108 0 0 1000000000 0 0 1
109 0 0 1000000000 0 0 1
110 0 0 1000000000 0 0 1
111 0 0 1000000000 0 1 0
112 0 0 1000000000 0 0 1
113 0 0 1000000000 0 0 1
114 0 0 1000000000 0 0 1
115 0 0 1000000000 0 0 1
116 0 0 1000000000 0 0 1
117 0 0 1000000000 0 0 1
118 0 0 1000000000 0 0 1
119 0 0 1000000000 0 0 1
120 0 0 1000000000 0 0 1
121 0 0 1000000000 0 1 0
122 0 0 1000000000 0 0 1
123 0 0 1000000000 0 0 1
124 0 0 1000000000 0 0 1
125 0 0 1000000000 0 0 1
126 0 0 1000000000 0 0 1
127 0 0 1000000000 0 0 1
128 0 0 1000000000 0 0 1
129 0 0 1000000000 0 0 1
130 0 0 1000000000 0 0 1
131 0 0 1000000000 0 1 0
132 0 0 1000000000 0 0 1
133 0 0 1000000000 0 0 1
134 0 0 1000000000 0 0 1
135 0 0 1000000000 0 0 1
136 0 0 1000000000 0 0 1
137 0 0 1000000000 0 0 1
138 0 0 1000000000 0 0 1
139 0 0 1000000000 0 0 1
140 0 0 1000000000 0 0 1
141 0 0 1000000000 0 1 0
142 0 0 1000000000 0 0 1
143 0 0 1000000000 0 0 1
144 0 0 1000000000 0 0 1
145 0 0 1000000000 0 0 1
146 0 0 1000000000 0 0 1
147 0 0 1000000000 0 0 1
148 0 0 1000000000 0 0 1
149 0 0 1000000000 0 0 1
150 0 0 1000000000 0 0 1
151 0 0 1000000000 0 1 0
152 0 0 1000000000 0 0 1
153 0 0 1000000000 0 0 1
154 0 0 1000000000 0 0 1
155 0 0 1000000000 0 0 1
156 0 0 1000000000 0 0 1
157 0 0 1000000000 0 0 1
158 0 0 1000000000 0 0 1
159 0 0 1000000000 0 0 1
160 0 0 1000000000 0 0 1
161 0 0 1000000000 0 1 0
162 0 0 1000000000 0 0 1
163 0 0 1000000000 0 0 1
164 0 0 1000000000 0 0 1
165 0 0 1000000000 0 0 1
166 0 0 1000000000 0 0 1
167 0 0 1000000000 0 0 1
168 0 0 1000000000 0 0 1
169 0 0 1000000000 0 0 1
170 0 0 1000000000 0 0 1
171 0 0 1000000000 0 1 0
172 0 0 1000000000 0 0 1
173 0 0 1000000000 0 0 1
174 0 0 1000000000 0 0 1
175 0 0 1000000000 0 0 1
176 0 0 1000000000 0 0 1
177 0 0 1000000000 0 0 1
178 0 0 1000000000 0 0 1
179 0 0 1000000000 0 0 1
180 0 0 1000000000 0 0 1
181 0 0 1000000000 0 1 0
182 0 0 1000000000 0 0 1
183 0 0 1000000000 0 0 1
184 0 0 1000000000 0 0 1
185 0 0 1000000000 0 0 1
186 0 0 1000000000 0 0 1
187 0 0 1000000000 0 0 1
188 0 0 1000000000 0 0 1
189 0 0 1000000000 0 0 1
190 0 0 1000000000 0 0 1
191 0 0 1000000000 0 1 0
192 0 0 1000000000 0 0 1
193 0 0 1000000000 0 0 1
194 0 0 1000000000 0 0 1
195 0 0 1000000000 0 0 1
196 0 0 1000000000 0 0 1
197 0 0 1000000000 0 0 1
198 0 0 1000000000 0 0 1
199 0 0 1000000000 0 0 1
200 0 0 1000000000 0 0 1
201 0 0 1000000000 0 1 0
202 0 0 1000000000 0 0 1
203 0 0 1000000000 0 0 1
204 0 0 1000000000 0 0 1
205 0 0 1000000000 0 0 1
206 0 0 1000000000 0 0 1
207 0 0 1000000000 0 0 1
208 0 0 1000000000 0 0 1
209 0 0 1000000000 0 0 1
210 0 0 1000000000 0 0 1
211 0 0 1000000000 0 1 0
212 0 0 1000000000 0 0 1
213 0 0 1000000000 0 0 1
214 0 0 1000000000 0 0 1
215 0 0 1000000000 0 0 1
216 0 0 1000000000 0 0 1
217 0 0 1000000000 0 0 1
218 0 0 1000000000 0 0 1
219 0 0 1000000000 0 0 1
220 0 0 1000000000 0 0 1
221 0 0 1000000000 0 1 0
222 0 0 1000000000 0 0 1
223 0 0 1000000000 0 0 1
224 0 0 1000000000 0 0 1
225 0 0 1000000000 0 0 1
226 0 0 1000000000 0 0 1
227 0 0 1000000000 0 0 1
228 0 0 1000000000 0 0 1
229 0 0 1000000000 0 0 1
230 0 0 1000000000 0 0 1
231 0 0 1000000000 0 1 0
232 0 0 1000000000 0 0 1
233 0 0 1000000000 0 0 1
234 0 0 1000000000 0 0 1
235 0 0 1000000000 0 0 1
236 0 0 1000000000 0 0 1
237 0 0 1000000000 0 0 1
238 0 0 1000000000 0 0 1
239 0 0 1000000000 0 0 1
240 0 0 1000000000 0 0 1
241 0 0 1000000000 0 1 0
242 0 0 1000000000 0 0 1
243 0 0 1000000000 0 0 1
244 0 0 1000000000 0 0 1
245 0 0 1000000000 0 0 1
246 0 0 1000000000 0 0 1
247 0 0 1000000000 0 0 1
248 0 0 1000000000 0 0 1
249 0 0 1000000000 0 0 1
250 0 0 1000000000 0 0 1
251 0 0 1000000000 0 1 0
252 0 0 1000000000 0 0 1
253 0 0 1000000000 0 0 1
254 0 0 1000000000 0 0 1
255 0 0 1000000000 0 0 1
256 0 0 1000000000 0 0 1
257 0 0 1000000000 0 0 1
258 0 0 1000000000 0 0 1
259 0 0 1000000000 0 0 1
260 0 0 1000000000 0 0 1
261 0 0 1000000000 0 1 0
262 0 0 1000000000 0 0 1
263 0 0 1000000000 0 0 1
264 0 0 1000000000 0 0 1
265 0 0 1000000000 0 0 1
266 0 0 1000000000 0 0 1
267 0 0 1000000000 0 0 1
268 0 0 1000000000 0 0 1
269 0 0 1000000000 0 0 1
270 0 0 1000000000 0 0 1
271 0 0 1000000000 0 1 0
272 0 0 1000000000 0 0 1
273 0 0 1000000000 0 0 1
274 0 0 1000000000 0 0 1
275 0 0 1000000000 0 0 1
276 0 0 1000000000 0 0 1
277 0 0 1000000000 0 0 1
278 0 0 1000000000 0 0 1
279 0 0 1000000000 0 0 1
280 0 0 1000000000 0 0 1
281 0 0 1000000000 0 1 0
282 0 0 1000000000 0 0 1
283 0 0 1000000000 0 0 1
284 0 0 1000000000 0 0 1
285 0 0 1000000000 0 0 1
286 0 0 1000000000 0 0 1
287 0 0 1000000000 0 0 1
288 0 0 1000000000 0 0 1
289 0 0 1000000000 0 0 1
290 0 0 1000000000 0 0 1
291 0 0 1000000000 0 1 0
292 0 0 1000000000 0 0 1
293 0 0 1000000000 0 0 1
294 0 0 1000000000 0 0 1
295 0 0 1000000000 0 0 1
296 0 0 1000000000 0 0 1
297 0 0 1000000000 0 0 1
298 0 0 1000000000 0 0 1
299 0 0 1000000000 0 0 1
300 0 0 1000000000 0 0 1
301 0 0 1000000000 0 1 0
302 0 0 1000000000 0 0 1
303 0 0 1000000000 0 0 1
304 0 0 1000000000 0 0 1
305 0 0 1000000000 0 0 1
306 0 0 1000000000 0 0 1
307 0 0 1000000000 0 0 1
308 0 0 1000000000 0 0 1
309 0 0 1000000000 0 0 1
310 0 0 1000000000 0 0 1
311 0 0 1000000000 0 1 0
312 0 0 1000000000 0 0 1
313 0 0 1000000000 0 0 1
314 0 0 1000000000 0 0 1
315 0 0 1000000000 0 0 1
316 0 0 1000000000 0 0 1
317 0 0 1000000000 0 0 1
318 0 0 1000000000 0 0 1
319 0 0 1000000000 0 0 1
320 0 0 1000000000 0 0 1
321 0 0 1000000000 0 1 0
322 0 0 1000000000 0 0 1
323 0 0 1000000000 0 0 1
324 0 0 1000000000 0 0 1
325 0 0 1000000000 0 0 1
326 0 0 1000000000 0 0 1
327 0 0 1000000000 0 0 1
328 0 0 1000000000 0 0 1
329 0 0 1000000000 0 0 1
330 0 0 1000000000 0 0 1
331 0 0 1000000000 0 1 0
332 0 0 1000000000 0 0 1
333 0 0 1000000000 0 0 1
334 0 0 1000000000 0 0 1
335 0 0 1000000000 0 0 1
336 0 0 1000000000 0 0 1
337 0 0 1000000000 0 0 1
338 0 0 1000000000 0 0 1
339 0 0 1000000000 0 0 1
340 0 0 1000000000 0 0 1
341 0 0 1000000000 0 1 0
342 0 0 1000000000 0 0 1
343 0 0 1000000000 0 0 1
344 0 0 1000000000 0 0 1
345 0 0 1000000000 0 0 1
346 0 0 1000000000 0 0 1
347 0 0 1000000000 0 0 1
348 0 0 1000000000 0 0 1
349 0 0 1000000000 0 0 1
350 0 0 1000000000 0 0 1
351 0 0 1000000000 0 1 0
352 0 0 1000000000 0 0 1
353 0 0 1000000000 0 0 1
354 0 0 1000000000 0 0 1
355 0 0 1000000000 0 0 1
356 0 0 1000000000 0 0 1
357 0 0 1000000000 0 0 1
358 0 0 1000000000 0 0 1
359 0 0 1000000000 0 0 1
360 0 0 1000000000 0 0 1
361 0 0 1000000000 0 1 0
362 0 0 1000000000 0 0 1
363 0 0 1000000000 0 0 1
364 0 0 1000000000 0 0 1
365 0 0 1000000000 0 0 1
366 0 0 1000000000 0 0 1
367 0 0 1000000000 0 0 1
368 0 0 1000000000 0 0 1
369 0 0 1000000000 0 0 1
370 0 0 1000000000 0 0 1
371 0 0 1000000000 0 1 0
372 0 0 1000000000 0 0 1
373 0 0 1000000000 0 0 1
374 0 0 1000000000 0 0 1
375 0 0 1000000000 0 0 1
376 0 0 1000000000 0 0 1
377 0 0 1000000000 0 0 1
378 0 0 1000000000 0 0 1
379 0 0 1000000000 0 0 1
380 0 0 1000000000 0 0 1
381 0 0 1000000000 0 1 0
382 0 0 1000000000 0 0 1
383 0 0 1000000000 0 0 1
384 0 0 1000000000 0 0 1
385 0 0 1000000000 0 0 1
386 0 0 1000000000 0 0 1
387 0 0 1000000000 0 0 1
388 0 0 1000000000 0 0 1
389 0 0 1000000000 0 0 1
390 0 0 1000000000 0 0 1
391 0 0 1000000000 0 1 0
392 0 0 1000000000 0 0 1
393 0 0 1000000000 0 0 1
394 0 0 1000000000 0 0 1
395 0 0 1000000000 0 0 1
396 0 0 1000000000 0 0 1
397 0 0 1000000000 0 0 1
398 0 0 1000000000 0 0 1
399 0 0 1000000000 0 0 1
400 0 0 1000000000 0 0 1
401 0 0 1000000000 0 1 0
402 0 0 1000000000 0 0 1
403 0 0 1000000000 0 0 1
404 0 0 1000000000 0 0 1
405 0 0 1000000000 0 0 1
406 0 0 1000000000 0 0 1
407 0 0 1000000000 0 0 1
408 0 0 1000000000 0 0 1
409 0 0 1000000000 0 0 1
410 0 0 1000000000 0 0 1
411 0 0 1000000000 0 1 0
412 0 0 1000000000 0 0 1
413 0 0 1000000000 0 0 1
414 0 0 1000000000 0 0 1
415 0 0 1000000000 0 0 1
416 0 0 1000000000 0 0 1
417 0 0 1000000000 0 0 1
418 0 0 1000000000 0 0 1
419 0 0 1000000000 0 0 1
420 0 0 1000000000 0 0 1
421 0 0 1000000000 0 1 0
422 0 0 1000000000 0 0 1
423 0 0 1000000000 0 0 1
424 0 0 1000000000 0 0 1
425 0 0 1000000000 0 0 1
426 0 0 1000000000 0 0 1
427 0 0 1000000000 0 0 1
428 0 0 1000000000 0 0 1
429 0 0 1000000000 0 0 1
430 0 0 1000000000 0 0 1
431 0 0 1000000000 0 1 0
432 0 0 1000000000 0 0 1
433 0 0 1000000000 0 0 1
434 0 0 1000000000 0 0 1
435 0 0 1000000000 0 0 1
436 0 0 1000000000 0 0 1
437 0 0 1000000000 0 0 1
438 0 0 1000000000 0 0 1
439 0 0 1000000000 0 0 1
440 0 0 1000000000 0 0 1
441 0 0 1000000000 0 1 0
442 0 0 1000000000 0 0 1
443 0 0 1000000000 0 0 1
444 0 0 1000000000 0 0 1
445 0 0 1000000000 0 0 1
446 0 0 1000000000 0 0 1
447 0 0 1000000000 0 0 1
448 0 0 1000000000 0 0 1
449 0 0 1000000000 0 0 1
450 0 0 1000000000 0 0 1
451 0 0 1000000000 0 1 0
452 0 0 1000000000 0 0 1
453 0 0 1000000000 0 0 1
454 0 0 1000000000 0 0 1
455 0 0 1000000000 0 0 1
456 0 0 1000000000 0 0 1
457 0 0 1000000000 0 0 1
458 0 0 1000000000 0 0 1
459 0 0 1000000000 0 0 1
460 0 0 1000000000 0 0 1
461 0 0 1000000000 0 1 0
462 0 0 1000000000 0 0 1
463 0 0 1000000000 0 0 1
464 0 0 1000000000 0 0 1
465 0 0 1000000000 0 0 1
466 0 0 1000000000 0 0 1
467 0 0 1000000000 0 0 1
468 0 0 1000000000 0 0 1
469 0 0 1000000000 0 0 1
470 0 0 1000000000 0 0 1
471 0 0 1000000000 0 1 0
472 0 0 1000000000 0 0 1
473 0 0 1000000000 0 0 1
474 0 0 1000000000 0 0 1
475 0 0 1000000000 0 0 1
476 0 0 1000000000 0 0 1
477 0 0 1000000000 0 0 1
478 0 0 1000000000 0 0 1
479 0 0 1000000000 0 0 1
480 0 0 1000000000 0 0 1
481 0 0 1000000000 0 1 0
482 0 0 1000000000 0 0 1
483 0 0 1000000000 0 0 1
484 0 0 1000000000 0 0 1
485 0 0 1000000000 0 0 1
486 0 0 1000000000 0 0 1
487 0 0 1000000000 0 0 1
488 0 0 1000000000 0 0 1
489 0 0 1000000000 0 0 1
490 0 0 1000000000 0 0 1
491 0 0 1000000000 0 1 0
492 0 0 1000000000 0 0 1
493 0 0 1000000000 0 0 1
494 0 0 1000000000 0 0 1
495 0 0 1000000000 0 0 1
496 0 0 1000000000 0 0 1
497 0 0 1000000000 0 0 1
498 0 0 1000000000 0 0 1
499 0 0 1000000000 0 0 1
500 0 0 1000000000 0 0 1
501 0 0 1000000000 0 1 0
502 0 0 1000000000 0 0 1
503 0 0 1000000000 0 0 1
504 0 0 1000000000 0 0 1
505 0 0 1000000000 0 0 1
506 0 0 1000000000 0 0 1
507 0 0 1000000000 0 0 1
508 0 0 1000000000 0 0 1
509 0 0 1000000000 0 0 1
510 0 0 1000000000 0 0 1
511 0 0 1000000000 0 1 0
512 0 0 1000000000 0 0 1
513 0 0 1000000000 0 0 1
514 0 0 1000000000 0 0 1
515 0 0 1000000000 0 0 1
516 0 0 1000000000 0 0 1
517 0 0 1000000000 0 0 1
518 0 0 1000000000 0 0 1
519 0 0 1000000000 0 0 1
520 0 0 1000000000 0 0 1
521 0 0 1000000000 0 1 0
522 0 0 1000000000 0 0 1
523 0 0 1000000000 0 0 1
524 0 0 1000000000 0 0 1
525 0 0 1000000000 0 0 1
526 0 0 1000000000 0 0 1
527 0 0 1000000000 0 0 1
528 0 0 1000000000 0 0 1
529 0 0 1000000000 0 0 1
530 0 0 1000000000 0 0 1
531 0 0 1000000000 0 1 0
532 0 0 1000000000 0 0 1
533 0 0 1000000000 0 0 1
534 0 0 1000000000 0 0 1
535 0 0 1000000000 0 0 1
536 0 0 1000000000 0 0 1
537 0 0 1000000000 0 0 1
538 0 0 1000000000 0 0 1
539 0 0 1000000000 0 0 1
540 0 0 1000000000 0 0 1
541 0 0 1000000000 0 1 0
542 0 0 1000000000 0 0 1
543 0 0 1000000000 0 0 1
544 0 0 1000000000 0 0 1
545 0 0 1000000000 0 0 1
546 0 0 1000000000 0 0 1
547 0 0 1000000000 0 0 1
548 0 0 1000000000 0 0 1
549 0 0 1000000000 0 0 1
550 0 0 1000000000 0 0 1
551 0 0 1000000000 0 1 0
552 0 0 1000000000 0 0 1
553 0 0 1000000000 0 0 1
554 0 0 1000000000 0 0 1
555 0 0 1000000000 0 0 1
556 0 0 1000000000 0 0 1
557 0 0 1000000000 0 0 1
558 0 0 1000000000 0 0 1
559 0 0 1000000000 0 0 1
560 0 0 1000000000 0 0 1
561 0 0 1000000000 0 1 0
562 0 0 1000000000 0 0 1
563 0 0 1000000000 0 0 1
564 0 0 1000000000 0 0 1
565 0 0 1000000000 0 0 1
566 0 0 1000000000 0 0 1
567 0 0 1000000000 0 0 1
568 0 0 1000000000 0 0 1
569 0 0 1000000000 0 0 1
570 0 0 1000000000 0 0 1
571 0 0 1000000000 0 1 0
572 0 0 1000000000 0 0 1
573 0 0 1000000000 0 0 1
574 0 0 1000000000 0 0 1
575 0 0 1000000000 0 0 1
576 0 0 1000000000 0 0 1
577 0 0 1000000000 0 0 1
578 0 0 1000000000 0 0 1
579 0 0 1000000000 0 0 1
580 0 0 1000000000 0 0 1
581 0 0 1000000000 0 1 0
582 0 0 1000000000 0 0 1
583 0 0 1000000000 0 0 1
584 0 0 1000000000 0 0 1
585 0 0 1000000000 0 0 1
586 0 0 1000000000 0 0 1
587 0 0 1000000000 0 0 1
588 0 0 1000000000 0 0 1
589 0 0 1000000000 0 0 1
590 0 0 1000000000 0 0 1
591 0 0 1000000000 0 1 0
592 0 0 1000000000 0 0 1
593 0 0 1000000000 0 0 1
594 0 0 1000000000 0 0 1
595 0 0 1000000000 0 0 1
596 0 0 1000000000 0 0 1
597 0 0 1000000000 0 0 1
598 0 0 1000000000 0 0 1
599 0 0 1000000000 0 0 1
600 0 0 1000000000 0 0 1
601 0 0 1000000000 0 1 0
602 0 0 1000000000 0 0 1
603 0 0 1000000000 0 0 1
604 0 0 1000000000 0 0 1
605 0 0 1000000000 0 0 1
606 0 0 1000000000 0 0 1
607 0 0 1000000000 0 0 1
608 0 0 1000000000 0 0 1
609 0 0 1000000000 0 0 1
610 0 0 1000000000 0 0 1
611 0 0 1000000000 0 1 0
612 0 0 1000000000 0 0 1
613 0 0 1000000000 0 0 1
614 0 0 1000000000 0 0 1
615 0 0 1000000000 0 0 1
616 0 0 1000000000 0 0 1
617 0 0 1000000000 0 0 1
618 0 0 1000000000 0 0 1
619 0 0 1000000000 0 0 1
620 0 0 1000000000 0 0 1
621 0 0 1000000000 0 1 0
622 0 0 1000000000 0 0 1
623 0 0 1000000000 0 0 1
624 0 0 1000000000 0 0 1
625 0 0 1000000000 0 0 1
626 0 0 1000000000 0 0 1
627 0 0 1000000000 0 0 1
628 0 0 1000000000 0 0 1
629 0 0 1000000000 0 0 1
630 0 0 1000000000 0 0 1
631 0 0 1000000000 0 1 0
632 0 0 1000000000 0 0 1
633 0 0 1000000000 0 0 1
634 0 0 1000000000 0 0 1
635 0 0 1000000000 0 0 1
636 0 0 1000000000 0 0 1
637 0 0 1000000000 0 0 1
638 0 0 1000000000 0 0 1
639 0 0 1000000000 0 0 1
640 0 0 1000000000 0 0 1
641 0 0 1000000000 0 1 0
642 0 0 1000000000 0 0 1
643 0 0 1000000000 0 0 1
644 0 0 1000000000 0 0 1
645 0 0 1000000000 0 0 1
646 0 0 1000000000 0 0 1
647 0 0 1000000000 0 0 1
648 0 0 1000000000 0 0 1
649 0 0 1000000000 0 0 1
650 0 0 1000000000 0 0 1
651 0 0 1000000000 0 1 0
652 0 0 1000000000 0 0 1
653 0 0 1000000000 0 0 1
654 0 0 1000000000 0 0 1
655 0 0 1000000000 0 0 1
656 0 0 1000000000 0 0 1
657 0 0 1000000000 0 0 1
658 0 0 1000000000 0 0 1
659 0 0 1000000000 0 0 1
660 0 0 1000000000 0 0 1
661 0 0 1000000000 0 1 0
662 0 0 1000000000 0 0 1
663 0 0 1000000000 0 0 1
664 0 0 1000000000 0 0 1
665 0 0 1000000000 0 0 1
666 0 0 1000000000 0 0 1
667 0 0 1000000000 0 0 1
668 0 0 1000000000 0 0 1
669 0 0 1000000000 0 0 1
670 0 0 1000000000 0 0 1
671 0 0 1000000000 0 1 0
672 0 0 1000000000 0 0 1
673 0 0 1000000000 0 0 1
674 0 0 1000000000 0 0 1
675 0 0 1000000000 0 0 1
676 0 0 1000000000 0 0 1
677 0 0 1000000000 0 0 1
678 0 0 1000000000 0 0 1
679 0 0 1000000000 0 0 1
680 0 0 1000000000 0 0 1
681 0 0 1000000000 0 1 0
682 0 0 1000000000 0 0 1
683 0 0 1000000000 0 0 1
684 0 0 1000000000 0 0 1
685 0 0 1000000000 0 0 1
686 0 0 1000000000 0 0 1
687 0 0 1000000000 0 0 1
688 0 0 1000000000 0 0 1
689 0 0 1000000000 0 0 1
690 0 0 1000000000 0 0 1
691 0 0 1000000000 0 1 0
692 0 0 1000000000 0 0 1
693 0 0 1000000000 0 0 1
694 0 0 1000000000 0 0 1
695 0 0 1000000000 0 0 1
696 0 0 1000000000 0 0 1
697 0 0 1000000000 0 0 1
698 0 0 1000000000 0 0 1
699 0 0 1000000000 0 0 1
700 0 0 1000000000 0 0 1
701 0 0 1000000000 0 1 0
702 0 0 1000000000 0 0 1
703 0 0 1000000000 0 0 1
704 0 0 1000000000 0 0 1
705 0 0 1000000000 0 0 1
706 0 0 1000000000 0 0 1
707 0 0 1000000000 0 0 1
708 0 0 1000000000 0 0 1
709 0 0 1000000000 0 0 1
710 0 0 1000000000 0 0 1
711 0 0 1000000000 0 1 0
712 0 0 1000000000 0 0 1
713 0 0 1000000000 0 0 1
714 0 0 1000000000 0 0 1
715 0 0 1000000000 0 0 1
716 0 0 1000000000 0 0 1
717 0 0 1000000000 0 0 1
718 0 0 1000000000 0 0 1
719 0 0 1000000000 0 0 1
720 0 0 1000000000 0 0 1
721 0 0 1000000000 0 1 0
722 0 0 1000000000 0 0 1
723 0 0 1000000000 0 0 1
724 0 0 1000000000 0 0 1
725 0 0 1000000000 0 0 1
726 0 0 1000000000 0 0 1
727 0 0 1000000000 0 0 1
728 0 0 1000000000 0 0 1
729 0 0 1000000000 0 0 1
730 0 0 1000000000 0 0 1
731 0 0 1000000000 0 1 0
732 0 0 1000000000 0 0 1
733 0 0 1000000000 0 0 1
734 0 0 1000000000 0 0 1
735 0 0 1000000000 0 0 1
736 0 0 1000000000 0 0 1
737 0 0 1000000000 0 0 1
738 0 0 1000000000 0 0 1
739 0 0 1000000000 0 0 1
740 0 0 1000000000 0 0 1
741 0 0 1000000000 0 1 0
742 0 0 1000000000 0 0 1
743 0 0 1000000000 0 0 1
744 0 0 1000000000 0 0 1
745 0 0 1000000000 0 0 1
746 0 0 1000000000 0 0 1
747 0 0 1000000000 0 0 1
748 0 0 1000000000 0 0 1
749 0 0 1000000000 0 0 1
750 0 0 1000000000 0 0 1
751 0 0 1000000000 0 1 0
752 0 0 1000000000 0 0 1
753 0 0 1000000000 0 0 1
754 0 0 1000000000 0 0 1
755 0 0 1000000000 0 0 1
756 0 0 1000000000 0 0 1
757 0 0 1000000000 0 0 1
758 0 0 1000000000 0 0 1
759 0 0 1000000000 0 0 1
760 0 0 1000000000 0 0 1
761 0 0 1000000000 0 1 0
762 0 0 1000000000 0 0 1
763 0 0 1000000000 0 0 1
764 0 0 1000000000 0 0 1
765 0 0 1000000000 0 0 1
766 0 0 1000000000 0 0 1
767 0 0 1000000000 0 0 1
768 0 0 1000000000 0 0 1
769 0 0 1000000000 0 0 1
770 0 0 1000000000 0 0 1
771 0 0 1000000000 0 1 0
772 0 0 1000000000 0 0 1
773 0 0 1000000000 0 0 1
774 0 0 1000000000 0 0 1
775 0 0 1000000000 0 0 1
776 0 0 1000000000 0 0 1
777 0 0 1000000000 0 0 1
778 0 0 1000000000 0 0 1
779 0 0 1000000000 0 0 1
780 0 0 1000000000 0 0 1
781 0 0 1000000000 0 1 0
782 0 0 1000000000 0 0 1
783 0 0 1000000000 0 0 1
784 0 0 1000000000 0 0 1
785 0 0 1000000000 0 0 1
786 0 0 1000000000 0 0 1
787 0 0 1000000000 0 0 1
788 0 0 1000000000 0 0 1
789 0 0 1000000000 0 0 1
790 0 0 1000000000 0 0 1
791 0 0 1000000000 0 1 0
792 0 0 1000000000 0 0 1
793 0 0 1000000000 0 0 1
794 0 0 1000000000 0 0 1
795 0 0 1000000000 0 0 1
796 0 0 1000000000 0 0 1
797 0 0 1000000000 0 0 1
798 0 0 1000000000 0 0 1
799 0 0 1000000000 0 0 1
800 0 0 1000000000 0 0 1
801 0 0 1000000000 0 1 0
802 0 0 1000000000 0 0 1
803 0 0 1000000000 0 0 1
804 0 0 1000000000 0 0 1
805 0 0 1000000000 0 0 1
806 0 0 1000000000 0 0 1
807 0 0 1000000000 0 0 1
808 0 0 1000000000 0 0 1
809 0 0 1000000000 0 0 1
810 0 0 1000000000 0 0 1
811 0 0 1000000000 0 1 0
812 0 0 1000000000 0 0 1
813 0 0 1000000000 0 0 1
814 0 0 1000000000 0 0 1
815 0 0 1000000000 0 0 1
816 0 0 1000000000 0 0 1
817 0 0 1000000000 0 0 1
818 0 0 1000000000 0 0 1
819 0 0 1000000000 0 0 1
820 0 0 1000000000 0 0 1
821 0 0 1000000000 0 1 0
822 0 0 1000000000 0 0 1
823 0 0 1000000000 0 0 1
824 0 0 1000000000 0 0 1
825 0 0 1000000000 0 0 1
826 0 0 1000000000 0 0 1
827 0 0 1000000000 0 0 1
828 0 0 1000000000 0 0 1
829 0 0 1000000000 0 0 1
830 0 0 1000000000 0 0 1
831 0 0 1000000000 0 1 0
832 0 0 1000000000 0 0 1
833 0 0 1000000000 0 0 1
834 0 0 1000000000 0 0 1
835 0 0 1000000000 0 0 1
836 0 0 1000000000 0 0 1
837 0 0 1000000000 0 0 1
838 0 0 1000000000 0 0 1
839 0 0 1000000000 0 0 1
840 0 0 1000000000 0 0 1
841 0 0 1000000000 0 1 0
842 0 0 1000000000 0 0 1
843 0 0 1000000000 0 0 1
844 0 0 1000000000 0 0 1
845 0 0 1000000000 0 0 1
846 0 0 1000000000 0 0 1
847 0 0 1000000000 0 0 1
848 0 0 1000000000 0 0 1
849 0 0 1000000000 0 0 1
850 0 0 1000000000 0 0 1
851 0 0 1000000000 0 1 0
852 0 0 1000000000 0 0 1
853 0 0 1000000000 0 0 1
854 0 0 1000000000 0 0 1
855 0 0 1000000000 0 0 1
856 0 0 1000000000 0 0 1
